# 
# This is the geometry file that corresponds to the current relaxation step.
# If you do not want this file to be written, set the "write_restart_geometry" flag to .false.
#  aims_uuid : A39D7029-D739-466E-A448-30FBB54F2422                                
# 
lattice_vector      0.00000000      6.07500000      6.07500000
lattice_vector      6.07500000      0.00000000      6.07500000
lattice_vector      6.07500000      6.07500000      0.00000000
atom       2.00172176      2.00172201     -0.00000004 Al
atom       4.07327824      4.07327799      0.00000005 Al
atom       2.00172174      0.00000012      2.00172201 Al
atom       4.06487476      2.01012494      2.01012489 Al
atom       6.07499981      4.07327757      2.00172243 Al
atom       4.07327826     -0.00000012      4.07327798 Al
atom       6.07500019      2.00172243      4.07327757 Al
atom       8.08512525      4.06487506      4.06487511 Al
atom       0.00000002      2.00172243      2.00172243 Al
atom       2.01012521      4.06487514      2.01012488 Al
atom       4.07327828      6.07499995      2.00172200 Al
atom       2.01012522      2.01012495      4.06487501 Al
atom       4.06487476      4.06487513      4.06487502 Al
atom       6.07499997      6.07500001      4.06693970 Al
atom       4.07327823      2.00172204      6.07500012 Al
atom       6.07500004      4.06693975      6.07500002 Al
atom       8.08306060      6.07499997      6.07500004 Al
atom      -0.00000002      4.07327757      4.07327757 Al
atom       2.00172173      6.07500006      4.07327800 Al
atom       4.06487479      8.08512486      4.06487512 Al
atom       2.00172177      4.07327796      6.07499989 Al
atom       4.06693939      6.07500003      6.07499997 Al
atom       6.07499996      8.08306025      6.07499999 Al
atom       4.06487478      4.06487505      8.08512499 Al
atom       6.07500003      6.07499999      8.08306031 Al
atom       8.08512524      8.08512487      8.08512498 Al
# 
# What follows is the current estimated Hessian matrix constructed by the BFGS algorithm.
# This is NOT the true Hessian matrix of the system.
# If you do not want this information here, switch it off using the "hessian_to_restart_geometry" keyword.
# 
trust_radius             0.2000000030
hessian_file
